PRODUCT = { Toy1, Toy2, Toy3, Toy4, Toy5 };
RESOURCE = {A, B, C, D };
capacity = [5000, 7500, 4000, 3000];
consumption =
  [| 1.5, 2.0, 1.5, 0.5, 0.1
   | 1.0, 0.0, 0.5, 1.0, 2.5
   | 1.0, 2.0, 1.0, 0.9, 0.1
   | 1.0, 0.0, 1.0, 1.5, 2.5 |];
profit = [11, 18, 15, 17, 11];
